\ LP format - for model browsing. Use MPS format to capture full model detail.
Minimize
  p0 + p1 + p2 + p3 + p4 + p5 + p6
Subject To
 R0: x0,1_1 + x0,2_1 + x0,3_1 + x0,4_1 + x0,5_1 + x0,6_1 + x1,2_1 + x1,3_1
   + x1,4_1 + x1,5_1 + x1,6_1 + x2,3_1 + x2,4_1 + x2,5_1 + x2,6_1 + x3,4_1
   + x3,5_1 + x3,6_1 + x4,5_1 + x4,6_1 + x5,6_1 = 1
 R1: x0,1_7 + x0,2_7 + x0,3_7 + x0,4_7 + x0,5_7 + x0,6_7 + x1,2_7 + x1,3_7
   + x1,4_7 + x1,5_7 + x1,6_7 + x2,3_7 + x2,4_7 + x2,5_7 + x2,6_7 + x3,4_7
   + x3,5_7 + x3,6_7 + x4,5_7 + x4,6_7 + x5,6_7 = 1
 R2: x0,1_8 + x0,2_8 + x0,3_8 + x0,4_8 + x0,5_8 + x0,6_8 + x1,2_8 + x1,3_8
   + x1,4_8 + x1,5_8 + x1,6_8 + x2,3_8 + x2,4_8 + x2,5_8 + x2,6_8 + x3,4_8
   + x3,5_8 + x3,6_8 + x4,5_8 + x4,6_8 + x5,6_8 = 1
 R3: x0,1_9 + x0,2_9 + x0,3_9 + x0,4_9 + x0,5_9 + x0,6_9 + x1,2_9 + x1,3_9
   + x1,4_9 + x1,5_9 + x1,6_9 + x2,3_9 + x2,4_9 + x2,5_9 + x2,6_9 + x3,4_9
   + x3,5_9 + x3,6_9 + x4,5_9 + x4,6_9 + x5,6_9 = 1
 R4: x0,1_13 + x0,2_13 + x0,3_13 + x0,4_13 + x0,5_13 + x0,6_13 + x1,2_13
   + x1,3_13 + x1,4_13 + x1,5_13 + x1,6_13 + x2,3_13 + x2,4_13 + x2,5_13
   + x2,6_13 + x3,4_13 + x3,5_13 + x3,6_13 + x4,5_13 + x4,6_13 + x5,6_13
   = 1
 R5: x0,1_14 + x0,2_14 + x0,3_14 + x0,4_14 + x0,5_14 + x0,6_14 + x1,2_14
   + x1,3_14 + x1,4_14 + x1,5_14 + x1,6_14 + x2,3_14 + x2,4_14 + x2,5_14
   + x2,6_14 + x3,4_14 + x3,5_14 + x3,6_14 + x4,5_14 + x4,6_14 + x5,6_14
   = 1
 R6: x0,1_15 + x0,2_15 + x0,3_15 + x0,4_15 + x0,5_15 + x0,6_15 + x1,2_15
   + x1,3_15 + x1,4_15 + x1,5_15 + x1,6_15 + x2,3_15 + x2,4_15 + x2,5_15
   + x2,6_15 + x3,4_15 + x3,5_15 + x3,6_15 + x4,5_15 + x4,6_15 + x5,6_15
   = 1
 R7: x0,1_17 + x0,2_17 + x0,3_17 + x0,4_17 + x0,5_17 + x0,6_17 + x1,2_17
   + x1,3_17 + x1,4_17 + x1,5_17 + x1,6_17 + x2,3_17 + x2,4_17 + x2,5_17
   + x2,6_17 + x3,4_17 + x3,5_17 + x3,6_17 + x4,5_17 + x4,6_17 + x5,6_17
   = 1
 R8: x0,1_21 + x0,2_21 + x0,3_21 + x0,4_21 + x0,5_21 + x0,6_21 + x1,2_21
   + x1,3_21 + x1,4_21 + x1,5_21 + x1,6_21 + x2,3_21 + x2,4_21 + x2,5_21
   + x2,6_21 + x3,4_21 + x3,5_21 + x3,6_21 + x4,5_21 + x4,6_21 + x5,6_21
   = 1
 R9: x0,1_22 + x0,2_22 + x0,3_22 + x0,4_22 + x0,5_22 + x0,6_22 + x1,2_22
   + x1,3_22 + x1,4_22 + x1,5_22 + x1,6_22 + x2,3_22 + x2,4_22 + x2,5_22
   + x2,6_22 + x3,4_22 + x3,5_22 + x3,6_22 + x4,5_22 + x4,6_22 + x5,6_22
   = 1
 R10: x0,1_29 + x0,2_29 + x0,3_29 + x0,4_29 + x0,5_29 + x0,6_29 + x1,2_29
   + x1,3_29 + x1,4_29 + x1,5_29 + x1,6_29 + x2,3_29 + x2,4_29 + x2,5_29
   + x2,6_29 + x3,4_29 + x3,5_29 + x3,6_29 + x4,5_29 + x4,6_29 + x5,6_29
   = 1
 R11: x0,1_32 + x0,2_32 + x0,3_32 + x0,4_32 + x0,5_32 + x0,6_32 + x1,2_32
   + x1,3_32 + x1,4_32 + x1,5_32 + x1,6_32 + x2,3_32 + x2,4_32 + x2,5_32
   + x2,6_32 + x3,4_32 + x3,5_32 + x3,6_32 + x4,5_32 + x4,6_32 + x5,6_32
   = 1
 R12: x0,1_44 + x0,2_44 + x0,3_44 + x0,4_44 + x0,5_44 + x0,6_44 + x1,2_44
   + x1,3_44 + x1,4_44 + x1,5_44 + x1,6_44 + x2,3_44 + x2,4_44 + x2,5_44
   + x2,6_44 + x3,4_44 + x3,5_44 + x3,6_44 + x4,5_44 + x4,6_44 + x5,6_44
   = 1
 R13: x0,1_51 + x0,2_51 + x0,3_51 + x0,4_51 + x0,5_51 + x0,6_51 + x1,2_51
   + x1,3_51 + x1,4_51 + x1,5_51 + x1,6_51 + x2,3_51 + x2,4_51 + x2,5_51
   + x2,6_51 + x3,4_51 + x3,5_51 + x3,6_51 + x4,5_51 + x4,6_51 + x5,6_51
   = 1
 R14: x0,1_1 + x0,1_7 + x0,1_8 + x0,1_9 + x0,1_13 + x0,1_14 + x0,1_15
   + x0,1_17 + x0,1_21 + x0,1_22 + x0,1_29 + x0,1_32 + x0,1_44 + x0,1_51
   <= 1
 R15: x0,2_1 + x0,2_7 + x0,2_8 + x0,2_9 + x0,2_13 + x0,2_14 + x0,2_15
   + x0,2_17 + x0,2_21 + x0,2_22 + x0,2_29 + x0,2_32 + x0,2_44 + x0,2_51
   <= 1
 R16: x0,3_1 + x0,3_7 + x0,3_8 + x0,3_9 + x0,3_13 + x0,3_14 + x0,3_15
   + x0,3_17 + x0,3_21 + x0,3_22 + x0,3_29 + x0,3_32 + x0,3_44 + x0,3_51
   <= 1
 R17: x0,4_1 + x0,4_7 + x0,4_8 + x0,4_9 + x0,4_13 + x0,4_14 + x0,4_15
   + x0,4_17 + x0,4_21 + x0,4_22 + x0,4_29 + x0,4_32 + x0,4_44 + x0,4_51
   <= 1
 R18: x0,5_1 + x0,5_7 + x0,5_8 + x0,5_9 + x0,5_13 + x0,5_14 + x0,5_15
   + x0,5_17 + x0,5_21 + x0,5_22 + x0,5_29 + x0,5_32 + x0,5_44 + x0,5_51
   <= 1
 R19: x0,6_1 + x0,6_7 + x0,6_8 + x0,6_9 + x0,6_13 + x0,6_14 + x0,6_15
   + x0,6_17 + x0,6_21 + x0,6_22 + x0,6_29 + x0,6_32 + x0,6_44 + x0,6_51
   <= 1
 R20: x1,2_1 + x1,2_7 + x1,2_8 + x1,2_9 + x1,2_13 + x1,2_14 + x1,2_15
   + x1,2_17 + x1,2_21 + x1,2_22 + x1,2_29 + x1,2_32 + x1,2_44 + x1,2_51
   <= 1
 R21: x1,3_1 + x1,3_7 + x1,3_8 + x1,3_9 + x1,3_13 + x1,3_14 + x1,3_15
   + x1,3_17 + x1,3_21 + x1,3_22 + x1,3_29 + x1,3_32 + x1,3_44 + x1,3_51
   <= 1
 R22: x1,4_1 + x1,4_7 + x1,4_8 + x1,4_9 + x1,4_13 + x1,4_14 + x1,4_15
   + x1,4_17 + x1,4_21 + x1,4_22 + x1,4_29 + x1,4_32 + x1,4_44 + x1,4_51
   <= 1
 R23: x1,5_1 + x1,5_7 + x1,5_8 + x1,5_9 + x1,5_13 + x1,5_14 + x1,5_15
   + x1,5_17 + x1,5_21 + x1,5_22 + x1,5_29 + x1,5_32 + x1,5_44 + x1,5_51
   <= 1
 R24: x1,6_1 + x1,6_7 + x1,6_8 + x1,6_9 + x1,6_13 + x1,6_14 + x1,6_15
   + x1,6_17 + x1,6_21 + x1,6_22 + x1,6_29 + x1,6_32 + x1,6_44 + x1,6_51
   <= 1
 R25: x2,3_1 + x2,3_7 + x2,3_8 + x2,3_9 + x2,3_13 + x2,3_14 + x2,3_15
   + x2,3_17 + x2,3_21 + x2,3_22 + x2,3_29 + x2,3_32 + x2,3_44 + x2,3_51
   <= 1
 R26: x2,4_1 + x2,4_7 + x2,4_8 + x2,4_9 + x2,4_13 + x2,4_14 + x2,4_15
   + x2,4_17 + x2,4_21 + x2,4_22 + x2,4_29 + x2,4_32 + x2,4_44 + x2,4_51
   <= 1
 R27: x2,5_1 + x2,5_7 + x2,5_8 + x2,5_9 + x2,5_13 + x2,5_14 + x2,5_15
   + x2,5_17 + x2,5_21 + x2,5_22 + x2,5_29 + x2,5_32 + x2,5_44 + x2,5_51
   <= 1
 R28: x2,6_1 + x2,6_7 + x2,6_8 + x2,6_9 + x2,6_13 + x2,6_14 + x2,6_15
   + x2,6_17 + x2,6_21 + x2,6_22 + x2,6_29 + x2,6_32 + x2,6_44 + x2,6_51
   <= 1
 R29: x3,4_1 + x3,4_7 + x3,4_8 + x3,4_9 + x3,4_13 + x3,4_14 + x3,4_15
   + x3,4_17 + x3,4_21 + x3,4_22 + x3,4_29 + x3,4_32 + x3,4_44 + x3,4_51
   <= 1
 R30: x3,5_1 + x3,5_7 + x3,5_8 + x3,5_9 + x3,5_13 + x3,5_14 + x3,5_15
   + x3,5_17 + x3,5_21 + x3,5_22 + x3,5_29 + x3,5_32 + x3,5_44 + x3,5_51
   <= 1
 R31: x3,6_1 + x3,6_7 + x3,6_8 + x3,6_9 + x3,6_13 + x3,6_14 + x3,6_15
   + x3,6_17 + x3,6_21 + x3,6_22 + x3,6_29 + x3,6_32 + x3,6_44 + x3,6_51
   <= 1
 R32: x4,5_1 + x4,5_7 + x4,5_8 + x4,5_9 + x4,5_13 + x4,5_14 + x4,5_15
   + x4,5_17 + x4,5_21 + x4,5_22 + x4,5_29 + x4,5_32 + x4,5_44 + x4,5_51
   <= 1
 R33: x4,6_1 + x4,6_7 + x4,6_8 + x4,6_9 + x4,6_13 + x4,6_14 + x4,6_15
   + x4,6_17 + x4,6_21 + x4,6_22 + x4,6_29 + x4,6_32 + x4,6_44 + x4,6_51
   <= 1
 R34: x5,6_1 + x5,6_7 + x5,6_8 + x5,6_9 + x5,6_13 + x5,6_14 + x5,6_15
   + x5,6_17 + x5,6_21 + x5,6_22 + x5,6_29 + x5,6_32 + x5,6_44 + x5,6_51
   <= 1
 R35: p0 - p1 <= -1
 R36: - x0,1_1 - p0 + p1 >= 0
 R37: 283 x0,1_1 - p0 + p1 <= 284
 R38: - 7 x0,1_7 - p0 + p1 >= 0
 R39: 283 x0,1_7 - p0 + p1 <= 290
 R40: - 8 x0,1_8 - p0 + p1 >= 0
 R41: 283 x0,1_8 - p0 + p1 <= 291
 R42: - 9 x0,1_9 - p0 + p1 >= 0
 R43: 283 x0,1_9 - p0 + p1 <= 292
 R44: - 13 x0,1_13 - p0 + p1 >= 0
 R45: 283 x0,1_13 - p0 + p1 <= 296
 R46: - 14 x0,1_14 - p0 + p1 >= 0
 R47: 283 x0,1_14 - p0 + p1 <= 297
 R48: - 15 x0,1_15 - p0 + p1 >= 0
 R49: 283 x0,1_15 - p0 + p1 <= 298
 R50: - 17 x0,1_17 - p0 + p1 >= 0
 R51: 283 x0,1_17 - p0 + p1 <= 300
 R52: - 21 x0,1_21 - p0 + p1 >= 0
 R53: 283 x0,1_21 - p0 + p1 <= 304
 R54: - 22 x0,1_22 - p0 + p1 >= 0
 R55: 283 x0,1_22 - p0 + p1 <= 305
 R56: - 29 x0,1_29 - p0 + p1 >= 0
 R57: 283 x0,1_29 - p0 + p1 <= 312
 R58: - 32 x0,1_32 - p0 + p1 >= 0
 R59: 283 x0,1_32 - p0 + p1 <= 315
 R60: - 44 x0,1_44 - p0 + p1 >= 0
 R61: 283 x0,1_44 - p0 + p1 <= 327
 R62: - 51 x0,1_51 - p0 + p1 >= 0
 R63: 283 x0,1_51 - p0 + p1 <= 334
 R64: p0 - p2 <= -1
 R65: - x0,2_1 - p0 + p2 >= 0
 R66: 283 x0,2_1 - p0 + p2 <= 284
 R67: - 7 x0,2_7 - p0 + p2 >= 0
 R68: 283 x0,2_7 - p0 + p2 <= 290
 R69: - 8 x0,2_8 - p0 + p2 >= 0
 R70: 283 x0,2_8 - p0 + p2 <= 291
 R71: - 9 x0,2_9 - p0 + p2 >= 0
 R72: 283 x0,2_9 - p0 + p2 <= 292
 R73: - 13 x0,2_13 - p0 + p2 >= 0
 R74: 283 x0,2_13 - p0 + p2 <= 296
 R75: - 14 x0,2_14 - p0 + p2 >= 0
 R76: 283 x0,2_14 - p0 + p2 <= 297
 R77: - 15 x0,2_15 - p0 + p2 >= 0
 R78: 283 x0,2_15 - p0 + p2 <= 298
 R79: - 17 x0,2_17 - p0 + p2 >= 0
 R80: 283 x0,2_17 - p0 + p2 <= 300
 R81: - 21 x0,2_21 - p0 + p2 >= 0
 R82: 283 x0,2_21 - p0 + p2 <= 304
 R83: - 22 x0,2_22 - p0 + p2 >= 0
 R84: 283 x0,2_22 - p0 + p2 <= 305
 R85: - 29 x0,2_29 - p0 + p2 >= 0
 R86: 283 x0,2_29 - p0 + p2 <= 312
 R87: - 32 x0,2_32 - p0 + p2 >= 0
 R88: 283 x0,2_32 - p0 + p2 <= 315
 R89: - 44 x0,2_44 - p0 + p2 >= 0
 R90: 283 x0,2_44 - p0 + p2 <= 327
 R91: - 51 x0,2_51 - p0 + p2 >= 0
 R92: 283 x0,2_51 - p0 + p2 <= 334
 R93: p0 - p3 <= -1
 R94: - x0,3_1 - p0 + p3 >= 0
 R95: 283 x0,3_1 - p0 + p3 <= 284
 R96: - 7 x0,3_7 - p0 + p3 >= 0
 R97: 283 x0,3_7 - p0 + p3 <= 290
 R98: - 8 x0,3_8 - p0 + p3 >= 0
 R99: 283 x0,3_8 - p0 + p3 <= 291
 R100: - 9 x0,3_9 - p0 + p3 >= 0
 R101: 283 x0,3_9 - p0 + p3 <= 292
 R102: - 13 x0,3_13 - p0 + p3 >= 0
 R103: 283 x0,3_13 - p0 + p3 <= 296
 R104: - 14 x0,3_14 - p0 + p3 >= 0
 R105: 283 x0,3_14 - p0 + p3 <= 297
 R106: - 15 x0,3_15 - p0 + p3 >= 0
 R107: 283 x0,3_15 - p0 + p3 <= 298
 R108: - 17 x0,3_17 - p0 + p3 >= 0
 R109: 283 x0,3_17 - p0 + p3 <= 300
 R110: - 21 x0,3_21 - p0 + p3 >= 0
 R111: 283 x0,3_21 - p0 + p3 <= 304
 R112: - 22 x0,3_22 - p0 + p3 >= 0
 R113: 283 x0,3_22 - p0 + p3 <= 305
 R114: - 29 x0,3_29 - p0 + p3 >= 0
 R115: 283 x0,3_29 - p0 + p3 <= 312
 R116: - 32 x0,3_32 - p0 + p3 >= 0
 R117: 283 x0,3_32 - p0 + p3 <= 315
 R118: - 44 x0,3_44 - p0 + p3 >= 0
 R119: 283 x0,3_44 - p0 + p3 <= 327
 R120: - 51 x0,3_51 - p0 + p3 >= 0
 R121: 283 x0,3_51 - p0 + p3 <= 334
 R122: p0 - p4 <= -1
 R123: - x0,4_1 - p0 + p4 >= 0
 R124: 283 x0,4_1 - p0 + p4 <= 284
 R125: - 7 x0,4_7 - p0 + p4 >= 0
 R126: 283 x0,4_7 - p0 + p4 <= 290
 R127: - 8 x0,4_8 - p0 + p4 >= 0
 R128: 283 x0,4_8 - p0 + p4 <= 291
 R129: - 9 x0,4_9 - p0 + p4 >= 0
 R130: 283 x0,4_9 - p0 + p4 <= 292
 R131: - 13 x0,4_13 - p0 + p4 >= 0
 R132: 283 x0,4_13 - p0 + p4 <= 296
 R133: - 14 x0,4_14 - p0 + p4 >= 0
 R134: 283 x0,4_14 - p0 + p4 <= 297
 R135: - 15 x0,4_15 - p0 + p4 >= 0
 R136: 283 x0,4_15 - p0 + p4 <= 298
 R137: - 17 x0,4_17 - p0 + p4 >= 0
 R138: 283 x0,4_17 - p0 + p4 <= 300
 R139: - 21 x0,4_21 - p0 + p4 >= 0
 R140: 283 x0,4_21 - p0 + p4 <= 304
 R141: - 22 x0,4_22 - p0 + p4 >= 0
 R142: 283 x0,4_22 - p0 + p4 <= 305
 R143: - 29 x0,4_29 - p0 + p4 >= 0
 R144: 283 x0,4_29 - p0 + p4 <= 312
 R145: - 32 x0,4_32 - p0 + p4 >= 0
 R146: 283 x0,4_32 - p0 + p4 <= 315
 R147: - 44 x0,4_44 - p0 + p4 >= 0
 R148: 283 x0,4_44 - p0 + p4 <= 327
 R149: - 51 x0,4_51 - p0 + p4 >= 0
 R150: 283 x0,4_51 - p0 + p4 <= 334
 R151: p0 - p5 <= -1
 R152: - x0,5_1 - p0 + p5 >= 0
 R153: 283 x0,5_1 - p0 + p5 <= 284
 R154: - 7 x0,5_7 - p0 + p5 >= 0
 R155: 283 x0,5_7 - p0 + p5 <= 290
 R156: - 8 x0,5_8 - p0 + p5 >= 0
 R157: 283 x0,5_8 - p0 + p5 <= 291
 R158: - 9 x0,5_9 - p0 + p5 >= 0
 R159: 283 x0,5_9 - p0 + p5 <= 292
 R160: - 13 x0,5_13 - p0 + p5 >= 0
 R161: 283 x0,5_13 - p0 + p5 <= 296
 R162: - 14 x0,5_14 - p0 + p5 >= 0
 R163: 283 x0,5_14 - p0 + p5 <= 297
 R164: - 15 x0,5_15 - p0 + p5 >= 0
 R165: 283 x0,5_15 - p0 + p5 <= 298
 R166: - 17 x0,5_17 - p0 + p5 >= 0
 R167: 283 x0,5_17 - p0 + p5 <= 300
 R168: - 21 x0,5_21 - p0 + p5 >= 0
 R169: 283 x0,5_21 - p0 + p5 <= 304
 R170: - 22 x0,5_22 - p0 + p5 >= 0
 R171: 283 x0,5_22 - p0 + p5 <= 305
 R172: - 29 x0,5_29 - p0 + p5 >= 0
 R173: 283 x0,5_29 - p0 + p5 <= 312
 R174: - 32 x0,5_32 - p0 + p5 >= 0
 R175: 283 x0,5_32 - p0 + p5 <= 315
 R176: - 44 x0,5_44 - p0 + p5 >= 0
 R177: 283 x0,5_44 - p0 + p5 <= 327
 R178: - 51 x0,5_51 - p0 + p5 >= 0
 R179: 283 x0,5_51 - p0 + p5 <= 334
 R180: p0 - p6 <= -1
 R181: - x0,6_1 - p0 + p6 >= 0
 R182: 283 x0,6_1 - p0 + p6 <= 284
 R183: - 7 x0,6_7 - p0 + p6 >= 0
 R184: 283 x0,6_7 - p0 + p6 <= 290
 R185: - 8 x0,6_8 - p0 + p6 >= 0
 R186: 283 x0,6_8 - p0 + p6 <= 291
 R187: - 9 x0,6_9 - p0 + p6 >= 0
 R188: 283 x0,6_9 - p0 + p6 <= 292
 R189: - 13 x0,6_13 - p0 + p6 >= 0
 R190: 283 x0,6_13 - p0 + p6 <= 296
 R191: - 14 x0,6_14 - p0 + p6 >= 0
 R192: 283 x0,6_14 - p0 + p6 <= 297
 R193: - 15 x0,6_15 - p0 + p6 >= 0
 R194: 283 x0,6_15 - p0 + p6 <= 298
 R195: - 17 x0,6_17 - p0 + p6 >= 0
 R196: 283 x0,6_17 - p0 + p6 <= 300
 R197: - 21 x0,6_21 - p0 + p6 >= 0
 R198: 283 x0,6_21 - p0 + p6 <= 304
 R199: - 22 x0,6_22 - p0 + p6 >= 0
 R200: 283 x0,6_22 - p0 + p6 <= 305
 R201: - 29 x0,6_29 - p0 + p6 >= 0
 R202: 283 x0,6_29 - p0 + p6 <= 312
 R203: - 32 x0,6_32 - p0 + p6 >= 0
 R204: 283 x0,6_32 - p0 + p6 <= 315
 R205: - 44 x0,6_44 - p0 + p6 >= 0
 R206: 283 x0,6_44 - p0 + p6 <= 327
 R207: - 51 x0,6_51 - p0 + p6 >= 0
 R208: 283 x0,6_51 - p0 + p6 <= 334
 R209: p1 - p2 <= -1
 R210: - x1,2_1 - p1 + p2 >= 0
 R211: 283 x1,2_1 - p1 + p2 <= 284
 R212: - 7 x1,2_7 - p1 + p2 >= 0
 R213: 283 x1,2_7 - p1 + p2 <= 290
 R214: - 8 x1,2_8 - p1 + p2 >= 0
 R215: 283 x1,2_8 - p1 + p2 <= 291
 R216: - 9 x1,2_9 - p1 + p2 >= 0
 R217: 283 x1,2_9 - p1 + p2 <= 292
 R218: - 13 x1,2_13 - p1 + p2 >= 0
 R219: 283 x1,2_13 - p1 + p2 <= 296
 R220: - 14 x1,2_14 - p1 + p2 >= 0
 R221: 283 x1,2_14 - p1 + p2 <= 297
 R222: - 15 x1,2_15 - p1 + p2 >= 0
 R223: 283 x1,2_15 - p1 + p2 <= 298
 R224: - 17 x1,2_17 - p1 + p2 >= 0
 R225: 283 x1,2_17 - p1 + p2 <= 300
 R226: - 21 x1,2_21 - p1 + p2 >= 0
 R227: 283 x1,2_21 - p1 + p2 <= 304
 R228: - 22 x1,2_22 - p1 + p2 >= 0
 R229: 283 x1,2_22 - p1 + p2 <= 305
 R230: - 29 x1,2_29 - p1 + p2 >= 0
 R231: 283 x1,2_29 - p1 + p2 <= 312
 R232: - 32 x1,2_32 - p1 + p2 >= 0
 R233: 283 x1,2_32 - p1 + p2 <= 315
 R234: - 44 x1,2_44 - p1 + p2 >= 0
 R235: 283 x1,2_44 - p1 + p2 <= 327
 R236: - 51 x1,2_51 - p1 + p2 >= 0
 R237: 283 x1,2_51 - p1 + p2 <= 334
 R238: p1 - p3 <= -1
 R239: - x1,3_1 - p1 + p3 >= 0
 R240: 283 x1,3_1 - p1 + p3 <= 284
 R241: - 7 x1,3_7 - p1 + p3 >= 0
 R242: 283 x1,3_7 - p1 + p3 <= 290
 R243: - 8 x1,3_8 - p1 + p3 >= 0
 R244: 283 x1,3_8 - p1 + p3 <= 291
 R245: - 9 x1,3_9 - p1 + p3 >= 0
 R246: 283 x1,3_9 - p1 + p3 <= 292
 R247: - 13 x1,3_13 - p1 + p3 >= 0
 R248: 283 x1,3_13 - p1 + p3 <= 296
 R249: - 14 x1,3_14 - p1 + p3 >= 0
 R250: 283 x1,3_14 - p1 + p3 <= 297
 R251: - 15 x1,3_15 - p1 + p3 >= 0
 R252: 283 x1,3_15 - p1 + p3 <= 298
 R253: - 17 x1,3_17 - p1 + p3 >= 0
 R254: 283 x1,3_17 - p1 + p3 <= 300
 R255: - 21 x1,3_21 - p1 + p3 >= 0
 R256: 283 x1,3_21 - p1 + p3 <= 304
 R257: - 22 x1,3_22 - p1 + p3 >= 0
 R258: 283 x1,3_22 - p1 + p3 <= 305
 R259: - 29 x1,3_29 - p1 + p3 >= 0
 R260: 283 x1,3_29 - p1 + p3 <= 312
 R261: - 32 x1,3_32 - p1 + p3 >= 0
 R262: 283 x1,3_32 - p1 + p3 <= 315
 R263: - 44 x1,3_44 - p1 + p3 >= 0
 R264: 283 x1,3_44 - p1 + p3 <= 327
 R265: - 51 x1,3_51 - p1 + p3 >= 0
 R266: 283 x1,3_51 - p1 + p3 <= 334
 R267: p1 - p4 <= -1
 R268: - x1,4_1 - p1 + p4 >= 0
 R269: 283 x1,4_1 - p1 + p4 <= 284
 R270: - 7 x1,4_7 - p1 + p4 >= 0
 R271: 283 x1,4_7 - p1 + p4 <= 290
 R272: - 8 x1,4_8 - p1 + p4 >= 0
 R273: 283 x1,4_8 - p1 + p4 <= 291
 R274: - 9 x1,4_9 - p1 + p4 >= 0
 R275: 283 x1,4_9 - p1 + p4 <= 292
 R276: - 13 x1,4_13 - p1 + p4 >= 0
 R277: 283 x1,4_13 - p1 + p4 <= 296
 R278: - 14 x1,4_14 - p1 + p4 >= 0
 R279: 283 x1,4_14 - p1 + p4 <= 297
 R280: - 15 x1,4_15 - p1 + p4 >= 0
 R281: 283 x1,4_15 - p1 + p4 <= 298
 R282: - 17 x1,4_17 - p1 + p4 >= 0
 R283: 283 x1,4_17 - p1 + p4 <= 300
 R284: - 21 x1,4_21 - p1 + p4 >= 0
 R285: 283 x1,4_21 - p1 + p4 <= 304
 R286: - 22 x1,4_22 - p1 + p4 >= 0
 R287: 283 x1,4_22 - p1 + p4 <= 305
 R288: - 29 x1,4_29 - p1 + p4 >= 0
 R289: 283 x1,4_29 - p1 + p4 <= 312
 R290: - 32 x1,4_32 - p1 + p4 >= 0
 R291: 283 x1,4_32 - p1 + p4 <= 315
 R292: - 44 x1,4_44 - p1 + p4 >= 0
 R293: 283 x1,4_44 - p1 + p4 <= 327
 R294: - 51 x1,4_51 - p1 + p4 >= 0
 R295: 283 x1,4_51 - p1 + p4 <= 334
 R296: p1 - p5 <= -1
 R297: - x1,5_1 - p1 + p5 >= 0
 R298: 283 x1,5_1 - p1 + p5 <= 284
 R299: - 7 x1,5_7 - p1 + p5 >= 0
 R300: 283 x1,5_7 - p1 + p5 <= 290
 R301: - 8 x1,5_8 - p1 + p5 >= 0
 R302: 283 x1,5_8 - p1 + p5 <= 291
 R303: - 9 x1,5_9 - p1 + p5 >= 0
 R304: 283 x1,5_9 - p1 + p5 <= 292
 R305: - 13 x1,5_13 - p1 + p5 >= 0
 R306: 283 x1,5_13 - p1 + p5 <= 296
 R307: - 14 x1,5_14 - p1 + p5 >= 0
 R308: 283 x1,5_14 - p1 + p5 <= 297
 R309: - 15 x1,5_15 - p1 + p5 >= 0
 R310: 283 x1,5_15 - p1 + p5 <= 298
 R311: - 17 x1,5_17 - p1 + p5 >= 0
 R312: 283 x1,5_17 - p1 + p5 <= 300
 R313: - 21 x1,5_21 - p1 + p5 >= 0
 R314: 283 x1,5_21 - p1 + p5 <= 304
 R315: - 22 x1,5_22 - p1 + p5 >= 0
 R316: 283 x1,5_22 - p1 + p5 <= 305
 R317: - 29 x1,5_29 - p1 + p5 >= 0
 R318: 283 x1,5_29 - p1 + p5 <= 312
 R319: - 32 x1,5_32 - p1 + p5 >= 0
 R320: 283 x1,5_32 - p1 + p5 <= 315
 R321: - 44 x1,5_44 - p1 + p5 >= 0
 R322: 283 x1,5_44 - p1 + p5 <= 327
 R323: - 51 x1,5_51 - p1 + p5 >= 0
 R324: 283 x1,5_51 - p1 + p5 <= 334
 R325: p1 - p6 <= -1
 R326: - x1,6_1 - p1 + p6 >= 0
 R327: 283 x1,6_1 - p1 + p6 <= 284
 R328: - 7 x1,6_7 - p1 + p6 >= 0
 R329: 283 x1,6_7 - p1 + p6 <= 290
 R330: - 8 x1,6_8 - p1 + p6 >= 0
 R331: 283 x1,6_8 - p1 + p6 <= 291
 R332: - 9 x1,6_9 - p1 + p6 >= 0
 R333: 283 x1,6_9 - p1 + p6 <= 292
 R334: - 13 x1,6_13 - p1 + p6 >= 0
 R335: 283 x1,6_13 - p1 + p6 <= 296
 R336: - 14 x1,6_14 - p1 + p6 >= 0
 R337: 283 x1,6_14 - p1 + p6 <= 297
 R338: - 15 x1,6_15 - p1 + p6 >= 0
 R339: 283 x1,6_15 - p1 + p6 <= 298
 R340: - 17 x1,6_17 - p1 + p6 >= 0
 R341: 283 x1,6_17 - p1 + p6 <= 300
 R342: - 21 x1,6_21 - p1 + p6 >= 0
 R343: 283 x1,6_21 - p1 + p6 <= 304
 R344: - 22 x1,6_22 - p1 + p6 >= 0
 R345: 283 x1,6_22 - p1 + p6 <= 305
 R346: - 29 x1,6_29 - p1 + p6 >= 0
 R347: 283 x1,6_29 - p1 + p6 <= 312
 R348: - 32 x1,6_32 - p1 + p6 >= 0
 R349: 283 x1,6_32 - p1 + p6 <= 315
 R350: - 44 x1,6_44 - p1 + p6 >= 0
 R351: 283 x1,6_44 - p1 + p6 <= 327
 R352: - 51 x1,6_51 - p1 + p6 >= 0
 R353: 283 x1,6_51 - p1 + p6 <= 334
 R354: p2 - p3 <= -1
 R355: - x2,3_1 - p2 + p3 >= 0
 R356: 283 x2,3_1 - p2 + p3 <= 284
 R357: - 7 x2,3_7 - p2 + p3 >= 0
 R358: 283 x2,3_7 - p2 + p3 <= 290
 R359: - 8 x2,3_8 - p2 + p3 >= 0
 R360: 283 x2,3_8 - p2 + p3 <= 291
 R361: - 9 x2,3_9 - p2 + p3 >= 0
 R362: 283 x2,3_9 - p2 + p3 <= 292
 R363: - 13 x2,3_13 - p2 + p3 >= 0
 R364: 283 x2,3_13 - p2 + p3 <= 296
 R365: - 14 x2,3_14 - p2 + p3 >= 0
 R366: 283 x2,3_14 - p2 + p3 <= 297
 R367: - 15 x2,3_15 - p2 + p3 >= 0
 R368: 283 x2,3_15 - p2 + p3 <= 298
 R369: - 17 x2,3_17 - p2 + p3 >= 0
 R370: 283 x2,3_17 - p2 + p3 <= 300
 R371: - 21 x2,3_21 - p2 + p3 >= 0
 R372: 283 x2,3_21 - p2 + p3 <= 304
 R373: - 22 x2,3_22 - p2 + p3 >= 0
 R374: 283 x2,3_22 - p2 + p3 <= 305
 R375: - 29 x2,3_29 - p2 + p3 >= 0
 R376: 283 x2,3_29 - p2 + p3 <= 312
 R377: - 32 x2,3_32 - p2 + p3 >= 0
 R378: 283 x2,3_32 - p2 + p3 <= 315
 R379: - 44 x2,3_44 - p2 + p3 >= 0
 R380: 283 x2,3_44 - p2 + p3 <= 327
 R381: - 51 x2,3_51 - p2 + p3 >= 0
 R382: 283 x2,3_51 - p2 + p3 <= 334
 R383: p2 - p4 <= -1
 R384: - x2,4_1 - p2 + p4 >= 0
 R385: 283 x2,4_1 - p2 + p4 <= 284
 R386: - 7 x2,4_7 - p2 + p4 >= 0
 R387: 283 x2,4_7 - p2 + p4 <= 290
 R388: - 8 x2,4_8 - p2 + p4 >= 0
 R389: 283 x2,4_8 - p2 + p4 <= 291
 R390: - 9 x2,4_9 - p2 + p4 >= 0
 R391: 283 x2,4_9 - p2 + p4 <= 292
 R392: - 13 x2,4_13 - p2 + p4 >= 0
 R393: 283 x2,4_13 - p2 + p4 <= 296
 R394: - 14 x2,4_14 - p2 + p4 >= 0
 R395: 283 x2,4_14 - p2 + p4 <= 297
 R396: - 15 x2,4_15 - p2 + p4 >= 0
 R397: 283 x2,4_15 - p2 + p4 <= 298
 R398: - 17 x2,4_17 - p2 + p4 >= 0
 R399: 283 x2,4_17 - p2 + p4 <= 300
 R400: - 21 x2,4_21 - p2 + p4 >= 0
 R401: 283 x2,4_21 - p2 + p4 <= 304
 R402: - 22 x2,4_22 - p2 + p4 >= 0
 R403: 283 x2,4_22 - p2 + p4 <= 305
 R404: - 29 x2,4_29 - p2 + p4 >= 0
 R405: 283 x2,4_29 - p2 + p4 <= 312
 R406: - 32 x2,4_32 - p2 + p4 >= 0
 R407: 283 x2,4_32 - p2 + p4 <= 315
 R408: - 44 x2,4_44 - p2 + p4 >= 0
 R409: 283 x2,4_44 - p2 + p4 <= 327
 R410: - 51 x2,4_51 - p2 + p4 >= 0
 R411: 283 x2,4_51 - p2 + p4 <= 334
 R412: p2 - p5 <= -1
 R413: - x2,5_1 - p2 + p5 >= 0
 R414: 283 x2,5_1 - p2 + p5 <= 284
 R415: - 7 x2,5_7 - p2 + p5 >= 0
 R416: 283 x2,5_7 - p2 + p5 <= 290
 R417: - 8 x2,5_8 - p2 + p5 >= 0
 R418: 283 x2,5_8 - p2 + p5 <= 291
 R419: - 9 x2,5_9 - p2 + p5 >= 0
 R420: 283 x2,5_9 - p2 + p5 <= 292
 R421: - 13 x2,5_13 - p2 + p5 >= 0
 R422: 283 x2,5_13 - p2 + p5 <= 296
 R423: - 14 x2,5_14 - p2 + p5 >= 0
 R424: 283 x2,5_14 - p2 + p5 <= 297
 R425: - 15 x2,5_15 - p2 + p5 >= 0
 R426: 283 x2,5_15 - p2 + p5 <= 298
 R427: - 17 x2,5_17 - p2 + p5 >= 0
 R428: 283 x2,5_17 - p2 + p5 <= 300
 R429: - 21 x2,5_21 - p2 + p5 >= 0
 R430: 283 x2,5_21 - p2 + p5 <= 304
 R431: - 22 x2,5_22 - p2 + p5 >= 0
 R432: 283 x2,5_22 - p2 + p5 <= 305
 R433: - 29 x2,5_29 - p2 + p5 >= 0
 R434: 283 x2,5_29 - p2 + p5 <= 312
 R435: - 32 x2,5_32 - p2 + p5 >= 0
 R436: 283 x2,5_32 - p2 + p5 <= 315
 R437: - 44 x2,5_44 - p2 + p5 >= 0
 R438: 283 x2,5_44 - p2 + p5 <= 327
 R439: - 51 x2,5_51 - p2 + p5 >= 0
 R440: 283 x2,5_51 - p2 + p5 <= 334
 R441: p2 - p6 <= -1
 R442: - x2,6_1 - p2 + p6 >= 0
 R443: 283 x2,6_1 - p2 + p6 <= 284
 R444: - 7 x2,6_7 - p2 + p6 >= 0
 R445: 283 x2,6_7 - p2 + p6 <= 290
 R446: - 8 x2,6_8 - p2 + p6 >= 0
 R447: 283 x2,6_8 - p2 + p6 <= 291
 R448: - 9 x2,6_9 - p2 + p6 >= 0
 R449: 283 x2,6_9 - p2 + p6 <= 292
 R450: - 13 x2,6_13 - p2 + p6 >= 0
 R451: 283 x2,6_13 - p2 + p6 <= 296
 R452: - 14 x2,6_14 - p2 + p6 >= 0
 R453: 283 x2,6_14 - p2 + p6 <= 297
 R454: - 15 x2,6_15 - p2 + p6 >= 0
 R455: 283 x2,6_15 - p2 + p6 <= 298
 R456: - 17 x2,6_17 - p2 + p6 >= 0
 R457: 283 x2,6_17 - p2 + p6 <= 300
 R458: - 21 x2,6_21 - p2 + p6 >= 0
 R459: 283 x2,6_21 - p2 + p6 <= 304
 R460: - 22 x2,6_22 - p2 + p6 >= 0
 R461: 283 x2,6_22 - p2 + p6 <= 305
 R462: - 29 x2,6_29 - p2 + p6 >= 0
 R463: 283 x2,6_29 - p2 + p6 <= 312
 R464: - 32 x2,6_32 - p2 + p6 >= 0
 R465: 283 x2,6_32 - p2 + p6 <= 315
 R466: - 44 x2,6_44 - p2 + p6 >= 0
 R467: 283 x2,6_44 - p2 + p6 <= 327
 R468: - 51 x2,6_51 - p2 + p6 >= 0
 R469: 283 x2,6_51 - p2 + p6 <= 334
 R470: p3 - p4 <= -1
 R471: - x3,4_1 - p3 + p4 >= 0
 R472: 283 x3,4_1 - p3 + p4 <= 284
 R473: - 7 x3,4_7 - p3 + p4 >= 0
 R474: 283 x3,4_7 - p3 + p4 <= 290
 R475: - 8 x3,4_8 - p3 + p4 >= 0
 R476: 283 x3,4_8 - p3 + p4 <= 291
 R477: - 9 x3,4_9 - p3 + p4 >= 0
 R478: 283 x3,4_9 - p3 + p4 <= 292
 R479: - 13 x3,4_13 - p3 + p4 >= 0
 R480: 283 x3,4_13 - p3 + p4 <= 296
 R481: - 14 x3,4_14 - p3 + p4 >= 0
 R482: 283 x3,4_14 - p3 + p4 <= 297
 R483: - 15 x3,4_15 - p3 + p4 >= 0
 R484: 283 x3,4_15 - p3 + p4 <= 298
 R485: - 17 x3,4_17 - p3 + p4 >= 0
 R486: 283 x3,4_17 - p3 + p4 <= 300
 R487: - 21 x3,4_21 - p3 + p4 >= 0
 R488: 283 x3,4_21 - p3 + p4 <= 304
 R489: - 22 x3,4_22 - p3 + p4 >= 0
 R490: 283 x3,4_22 - p3 + p4 <= 305
 R491: - 29 x3,4_29 - p3 + p4 >= 0
 R492: 283 x3,4_29 - p3 + p4 <= 312
 R493: - 32 x3,4_32 - p3 + p4 >= 0
 R494: 283 x3,4_32 - p3 + p4 <= 315
 R495: - 44 x3,4_44 - p3 + p4 >= 0
 R496: 283 x3,4_44 - p3 + p4 <= 327
 R497: - 51 x3,4_51 - p3 + p4 >= 0
 R498: 283 x3,4_51 - p3 + p4 <= 334
 R499: p3 - p5 <= -1
 R500: - x3,5_1 - p3 + p5 >= 0
 R501: 283 x3,5_1 - p3 + p5 <= 284
 R502: - 7 x3,5_7 - p3 + p5 >= 0
 R503: 283 x3,5_7 - p3 + p5 <= 290
 R504: - 8 x3,5_8 - p3 + p5 >= 0
 R505: 283 x3,5_8 - p3 + p5 <= 291
 R506: - 9 x3,5_9 - p3 + p5 >= 0
 R507: 283 x3,5_9 - p3 + p5 <= 292
 R508: - 13 x3,5_13 - p3 + p5 >= 0
 R509: 283 x3,5_13 - p3 + p5 <= 296
 R510: - 14 x3,5_14 - p3 + p5 >= 0
 R511: 283 x3,5_14 - p3 + p5 <= 297
 R512: - 15 x3,5_15 - p3 + p5 >= 0
 R513: 283 x3,5_15 - p3 + p5 <= 298
 R514: - 17 x3,5_17 - p3 + p5 >= 0
 R515: 283 x3,5_17 - p3 + p5 <= 300
 R516: - 21 x3,5_21 - p3 + p5 >= 0
 R517: 283 x3,5_21 - p3 + p5 <= 304
 R518: - 22 x3,5_22 - p3 + p5 >= 0
 R519: 283 x3,5_22 - p3 + p5 <= 305
 R520: - 29 x3,5_29 - p3 + p5 >= 0
 R521: 283 x3,5_29 - p3 + p5 <= 312
 R522: - 32 x3,5_32 - p3 + p5 >= 0
 R523: 283 x3,5_32 - p3 + p5 <= 315
 R524: - 44 x3,5_44 - p3 + p5 >= 0
 R525: 283 x3,5_44 - p3 + p5 <= 327
 R526: - 51 x3,5_51 - p3 + p5 >= 0
 R527: 283 x3,5_51 - p3 + p5 <= 334
 R528: p3 - p6 <= -1
 R529: - x3,6_1 - p3 + p6 >= 0
 R530: 283 x3,6_1 - p3 + p6 <= 284
 R531: - 7 x3,6_7 - p3 + p6 >= 0
 R532: 283 x3,6_7 - p3 + p6 <= 290
 R533: - 8 x3,6_8 - p3 + p6 >= 0
 R534: 283 x3,6_8 - p3 + p6 <= 291
 R535: - 9 x3,6_9 - p3 + p6 >= 0
 R536: 283 x3,6_9 - p3 + p6 <= 292
 R537: - 13 x3,6_13 - p3 + p6 >= 0
 R538: 283 x3,6_13 - p3 + p6 <= 296
 R539: - 14 x3,6_14 - p3 + p6 >= 0
 R540: 283 x3,6_14 - p3 + p6 <= 297
 R541: - 15 x3,6_15 - p3 + p6 >= 0
 R542: 283 x3,6_15 - p3 + p6 <= 298
 R543: - 17 x3,6_17 - p3 + p6 >= 0
 R544: 283 x3,6_17 - p3 + p6 <= 300
 R545: - 21 x3,6_21 - p3 + p6 >= 0
 R546: 283 x3,6_21 - p3 + p6 <= 304
 R547: - 22 x3,6_22 - p3 + p6 >= 0
 R548: 283 x3,6_22 - p3 + p6 <= 305
 R549: - 29 x3,6_29 - p3 + p6 >= 0
 R550: 283 x3,6_29 - p3 + p6 <= 312
 R551: - 32 x3,6_32 - p3 + p6 >= 0
 R552: 283 x3,6_32 - p3 + p6 <= 315
 R553: - 44 x3,6_44 - p3 + p6 >= 0
 R554: 283 x3,6_44 - p3 + p6 <= 327
 R555: - 51 x3,6_51 - p3 + p6 >= 0
 R556: 283 x3,6_51 - p3 + p6 <= 334
 R557: p4 - p5 <= -1
 R558: - x4,5_1 - p4 + p5 >= 0
 R559: 283 x4,5_1 - p4 + p5 <= 284
 R560: - 7 x4,5_7 - p4 + p5 >= 0
 R561: 283 x4,5_7 - p4 + p5 <= 290
 R562: - 8 x4,5_8 - p4 + p5 >= 0
 R563: 283 x4,5_8 - p4 + p5 <= 291
 R564: - 9 x4,5_9 - p4 + p5 >= 0
 R565: 283 x4,5_9 - p4 + p5 <= 292
 R566: - 13 x4,5_13 - p4 + p5 >= 0
 R567: 283 x4,5_13 - p4 + p5 <= 296
 R568: - 14 x4,5_14 - p4 + p5 >= 0
 R569: 283 x4,5_14 - p4 + p5 <= 297
 R570: - 15 x4,5_15 - p4 + p5 >= 0
 R571: 283 x4,5_15 - p4 + p5 <= 298
 R572: - 17 x4,5_17 - p4 + p5 >= 0
 R573: 283 x4,5_17 - p4 + p5 <= 300
 R574: - 21 x4,5_21 - p4 + p5 >= 0
 R575: 283 x4,5_21 - p4 + p5 <= 304
 R576: - 22 x4,5_22 - p4 + p5 >= 0
 R577: 283 x4,5_22 - p4 + p5 <= 305
 R578: - 29 x4,5_29 - p4 + p5 >= 0
 R579: 283 x4,5_29 - p4 + p5 <= 312
 R580: - 32 x4,5_32 - p4 + p5 >= 0
 R581: 283 x4,5_32 - p4 + p5 <= 315
 R582: - 44 x4,5_44 - p4 + p5 >= 0
 R583: 283 x4,5_44 - p4 + p5 <= 327
 R584: - 51 x4,5_51 - p4 + p5 >= 0
 R585: 283 x4,5_51 - p4 + p5 <= 334
 R586: p4 - p6 <= -1
 R587: - x4,6_1 - p4 + p6 >= 0
 R588: 283 x4,6_1 - p4 + p6 <= 284
 R589: - 7 x4,6_7 - p4 + p6 >= 0
 R590: 283 x4,6_7 - p4 + p6 <= 290
 R591: - 8 x4,6_8 - p4 + p6 >= 0
 R592: 283 x4,6_8 - p4 + p6 <= 291
 R593: - 9 x4,6_9 - p4 + p6 >= 0
 R594: 283 x4,6_9 - p4 + p6 <= 292
 R595: - 13 x4,6_13 - p4 + p6 >= 0
 R596: 283 x4,6_13 - p4 + p6 <= 296
 R597: - 14 x4,6_14 - p4 + p6 >= 0
 R598: 283 x4,6_14 - p4 + p6 <= 297
 R599: - 15 x4,6_15 - p4 + p6 >= 0
 R600: 283 x4,6_15 - p4 + p6 <= 298
 R601: - 17 x4,6_17 - p4 + p6 >= 0
 R602: 283 x4,6_17 - p4 + p6 <= 300
 R603: - 21 x4,6_21 - p4 + p6 >= 0
 R604: 283 x4,6_21 - p4 + p6 <= 304
 R605: - 22 x4,6_22 - p4 + p6 >= 0
 R606: 283 x4,6_22 - p4 + p6 <= 305
 R607: - 29 x4,6_29 - p4 + p6 >= 0
 R608: 283 x4,6_29 - p4 + p6 <= 312
 R609: - 32 x4,6_32 - p4 + p6 >= 0
 R610: 283 x4,6_32 - p4 + p6 <= 315
 R611: - 44 x4,6_44 - p4 + p6 >= 0
 R612: 283 x4,6_44 - p4 + p6 <= 327
 R613: - 51 x4,6_51 - p4 + p6 >= 0
 R614: 283 x4,6_51 - p4 + p6 <= 334
 R615: p5 - p6 <= -1
 R616: - x5,6_1 - p5 + p6 >= 0
 R617: 283 x5,6_1 - p5 + p6 <= 284
 R618: - 7 x5,6_7 - p5 + p6 >= 0
 R619: 283 x5,6_7 - p5 + p6 <= 290
 R620: - 8 x5,6_8 - p5 + p6 >= 0
 R621: 283 x5,6_8 - p5 + p6 <= 291
 R622: - 9 x5,6_9 - p5 + p6 >= 0
 R623: 283 x5,6_9 - p5 + p6 <= 292
 R624: - 13 x5,6_13 - p5 + p6 >= 0
 R625: 283 x5,6_13 - p5 + p6 <= 296
 R626: - 14 x5,6_14 - p5 + p6 >= 0
 R627: 283 x5,6_14 - p5 + p6 <= 297
 R628: - 15 x5,6_15 - p5 + p6 >= 0
 R629: 283 x5,6_15 - p5 + p6 <= 298
 R630: - 17 x5,6_17 - p5 + p6 >= 0
 R631: 283 x5,6_17 - p5 + p6 <= 300
 R632: - 21 x5,6_21 - p5 + p6 >= 0
 R633: 283 x5,6_21 - p5 + p6 <= 304
 R634: - 22 x5,6_22 - p5 + p6 >= 0
 R635: 283 x5,6_22 - p5 + p6 <= 305
 R636: - 29 x5,6_29 - p5 + p6 >= 0
 R637: 283 x5,6_29 - p5 + p6 <= 312
 R638: - 32 x5,6_32 - p5 + p6 >= 0
 R639: 283 x5,6_32 - p5 + p6 <= 315
 R640: - 44 x5,6_44 - p5 + p6 >= 0
 R641: 283 x5,6_44 - p5 + p6 <= 327
 R642: - 51 x5,6_51 - p5 + p6 >= 0
 R643: 283 x5,6_51 - p5 + p6 <= 334
Bounds
Binaries
 x0,1_1 x0,1_7 x0,1_8 x0,1_9 x0,1_13 x0,1_14 x0,1_15 x0,1_17 x0,1_21
 x0,1_22 x0,1_29 x0,1_32 x0,1_44 x0,1_51 x0,2_1 x0,2_7 x0,2_8 x0,2_9
 x0,2_13 x0,2_14 x0,2_15 x0,2_17 x0,2_21 x0,2_22 x0,2_29 x0,2_32 x0,2_44
 x0,2_51 x0,3_1 x0,3_7 x0,3_8 x0,3_9 x0,3_13 x0,3_14 x0,3_15 x0,3_17
 x0,3_21 x0,3_22 x0,3_29 x0,3_32 x0,3_44 x0,3_51 x0,4_1 x0,4_7 x0,4_8
 x0,4_9 x0,4_13 x0,4_14 x0,4_15 x0,4_17 x0,4_21 x0,4_22 x0,4_29 x0,4_32
 x0,4_44 x0,4_51 x0,5_1 x0,5_7 x0,5_8 x0,5_9 x0,5_13 x0,5_14 x0,5_15
 x0,5_17 x0,5_21 x0,5_22 x0,5_29 x0,5_32 x0,5_44 x0,5_51 x0,6_1 x0,6_7
 x0,6_8 x0,6_9 x0,6_13 x0,6_14 x0,6_15 x0,6_17 x0,6_21 x0,6_22 x0,6_29
 x0,6_32 x0,6_44 x0,6_51 x1,2_1 x1,2_7 x1,2_8 x1,2_9 x1,2_13 x1,2_14
 x1,2_15 x1,2_17 x1,2_21 x1,2_22 x1,2_29 x1,2_32 x1,2_44 x1,2_51 x1,3_1
 x1,3_7 x1,3_8 x1,3_9 x1,3_13 x1,3_14 x1,3_15 x1,3_17 x1,3_21 x1,3_22
 x1,3_29 x1,3_32 x1,3_44 x1,3_51 x1,4_1 x1,4_7 x1,4_8 x1,4_9 x1,4_13
 x1,4_14 x1,4_15 x1,4_17 x1,4_21 x1,4_22 x1,4_29 x1,4_32 x1,4_44 x1,4_51
 x1,5_1 x1,5_7 x1,5_8 x1,5_9 x1,5_13 x1,5_14 x1,5_15 x1,5_17 x1,5_21
 x1,5_22 x1,5_29 x1,5_32 x1,5_44 x1,5_51 x1,6_1 x1,6_7 x1,6_8 x1,6_9
 x1,6_13 x1,6_14 x1,6_15 x1,6_17 x1,6_21 x1,6_22 x1,6_29 x1,6_32 x1,6_44
 x1,6_51 x2,3_1 x2,3_7 x2,3_8 x2,3_9 x2,3_13 x2,3_14 x2,3_15 x2,3_17
 x2,3_21 x2,3_22 x2,3_29 x2,3_32 x2,3_44 x2,3_51 x2,4_1 x2,4_7 x2,4_8
 x2,4_9 x2,4_13 x2,4_14 x2,4_15 x2,4_17 x2,4_21 x2,4_22 x2,4_29 x2,4_32
 x2,4_44 x2,4_51 x2,5_1 x2,5_7 x2,5_8 x2,5_9 x2,5_13 x2,5_14 x2,5_15
 x2,5_17 x2,5_21 x2,5_22 x2,5_29 x2,5_32 x2,5_44 x2,5_51 x2,6_1 x2,6_7
 x2,6_8 x2,6_9 x2,6_13 x2,6_14 x2,6_15 x2,6_17 x2,6_21 x2,6_22 x2,6_29
 x2,6_32 x2,6_44 x2,6_51 x3,4_1 x3,4_7 x3,4_8 x3,4_9 x3,4_13 x3,4_14
 x3,4_15 x3,4_17 x3,4_21 x3,4_22 x3,4_29 x3,4_32 x3,4_44 x3,4_51 x3,5_1
 x3,5_7 x3,5_8 x3,5_9 x3,5_13 x3,5_14 x3,5_15 x3,5_17 x3,5_21 x3,5_22
 x3,5_29 x3,5_32 x3,5_44 x3,5_51 x3,6_1 x3,6_7 x3,6_8 x3,6_9 x3,6_13
 x3,6_14 x3,6_15 x3,6_17 x3,6_21 x3,6_22 x3,6_29 x3,6_32 x3,6_44 x3,6_51
 x4,5_1 x4,5_7 x4,5_8 x4,5_9 x4,5_13 x4,5_14 x4,5_15 x4,5_17 x4,5_21
 x4,5_22 x4,5_29 x4,5_32 x4,5_44 x4,5_51 x4,6_1 x4,6_7 x4,6_8 x4,6_9
 x4,6_13 x4,6_14 x4,6_15 x4,6_17 x4,6_21 x4,6_22 x4,6_29 x4,6_32 x4,6_44
 x4,6_51 x5,6_1 x5,6_7 x5,6_8 x5,6_9 x5,6_13 x5,6_14 x5,6_15 x5,6_17
 x5,6_21 x5,6_22 x5,6_29 x5,6_32 x5,6_44 x5,6_51
Generals
 p0 p1 p2 p3 p4 p5 p6
End
